g3 0 1 0	# problem ssnlbeam
 31 20 1 0 20	# vars, constraints, objectives, ranges, eqns
 10 1	# nonlinear constraints, objectives
 0 0	# network constraints: nonlinear, linear
 11 22 11	# nonlinear vars in constraints, objectives, both
 0 0 0 1	# linear network variables; functions; arith, flags
 0 0 0 0 0	# discrete variables: binary, integer, nonlinear (b,c,o)
 78 22	# nonzeros in Jacobian, gradients
 0 0	# max name lengths: constraints, variables
 0 0 0 0 0	# common exprs: b,c,o,c1,o1
b
0 -1 1
0 -1 1
0 -1 1
0 -1 1
0 -1 1
0 -1 1
0 -1 1
0 -1 1
0 -1 1
0 -1 1
0 -1 1
3
3
3
3
3
3
3
3
3
3
3
0 -0.05 0.05
0 -0.05 0.05
0 -0.05 0.05
0 -0.05 0.05
0 -0.05 0.05
0 -0.05 0.05
0 -0.05 0.05
0 -0.05 0.05
0 -0.05 0.05
x20
0 0.05
1 0.04975020826390129
2 0.04900332889206208
3 0.047766824456280305
4 0.04605304970014426
5 0.04387912809451864
6 0.041266780745483914
7 0.038242109364224425
8 0.03483533546735827
9 0.03108049841353322
10 0.027015115293406985
22 0.04975020826390129
23 0.04900332889206208
24 0.047766824456280305
25 0.04605304970014426
26 0.04387912809451864
27 0.041266780745483914
28 0.038242109364224425
29 0.03483533546735827
30 0.03108049841353322
r
4 0
4 0
4 0
4 0
4 0
4 0
4 0
4 0
4 0
4 0
4 0
4 0
4 0
4 0
4 0
4 0
4 0
4 0
4 0
4 0
C0
o0
o2
n-0.05
o41
v1
o2
n-0.05
o41
v0
C1
o0
o2
n-0.05
o41
v2
o2
n-0.05
o41
v1
C2
o0
o2
n-0.05
o41
v3
o2
n-0.05
o41
v2
C3
o0
o2
n-0.05
o41
v4
o2
n-0.05
o41
v3
C4
o0
o2
n-0.05
o41
v5
o2
n-0.05
o41
v4
C5
o0
o2
n-0.05
o41
v6
o2
n-0.05
o41
v5
C6
o0
o2
n-0.05
o41
v7
o2
n-0.05
o41
v6
C7
o0
o2
n-0.05
o41
v8
o2
n-0.05
o41
v7
C8
o0
o2
n-0.05
o41
v9
o2
n-0.05
o41
v8
C9
o0
o2
n-0.05
o41
v10
o2
n-0.05
o41
v9
C10
n0
C11
n0
C12
n0
C13
n0
C14
n0
C15
n0
C16
n0
C17
n0
C18
n0
C19
n0
O0 0
o54
40
o2
o2
n0.05
v12
v12
o2
o2
n0.05
v11
v11
o2
n17.5
o46
v1
o2
n17.5
o46
v0
o2
o2
n0.05
v13
v13
o2
o2
n0.05
v12
v12
o2
n17.5
o46
v2
o2
n17.5
o46
v1
o2
o2
n0.05
v14
v14
o2
o2
n0.05
v13
v13
o2
n17.5
o46
v3
o2
n17.5
o46
v2
o2
o2
n0.05
v15
v15
o2
o2
n0.05
v14
v14
o2
n17.5
o46
v4
o2
n17.5
o46
v3
o2
o2
n0.05
v16
v16
o2
o2
n0.05
v15
v15
o2
n17.5
o46
v5
o2
n17.5
o46
v4
o2
o2
n0.05
v17
v17
o2
o2
n0.05
v16
v16
o2
n17.5
o46
v6
o2
n17.5
o46
v5
o2
o2
n0.05
v18
v18
o2
o2
n0.05
v17
v17
o2
n17.5
o46
v7
o2
n17.5
o46
v6
o2
o2
n0.05
v19
v19
o2
o2
n0.05
v18
v18
o2
n17.5
o46
v8
o2
n17.5
o46
v7
o2
o2
n0.05
v20
v20
o2
o2
n0.05
v19
v19
o2
n17.5
o46
v9
o2
n17.5
o46
v8
o2
o2
n0.05
v21
v21
o2
o2
n0.05
v20
v20
o2
n17.5
o46
v10
o2
n17.5
o46
v9
k30
2
6
10
14
18
22
26
30
34
38
40
41
43
45
47
49
51
53
55
57
59
60
62
64
66
68
70
72
74
76
J0 3
0 0
1 0
22 1
J1 4
1 0
2 0
22 -1
23 1
J2 4
2 0
3 0
23 -1
24 1
J3 4
3 0
4 0
24 -1
25 1
J4 4
4 0
5 0
25 -1
26 1
J5 4
5 0
6 0
26 -1
27 1
J6 4
6 0
7 0
27 -1
28 1
J7 4
7 0
8 0
28 -1
29 1
J8 4
8 0
9 0
29 -1
30 1
J9 3
9 0
10 0
30 -1
J10 4
0 -1
1 1
11 -0.05
12 -0.05
J11 4
1 -1
2 1
12 -0.05
13 -0.05
J12 4
2 -1
3 1
13 -0.05
14 -0.05
J13 4
3 -1
4 1
14 -0.05
15 -0.05
J14 4
4 -1
5 1
15 -0.05
16 -0.05
J15 4
5 -1
6 1
16 -0.05
17 -0.05
J16 4
6 -1
7 1
17 -0.05
18 -0.05
J17 4
7 -1
8 1
18 -0.05
19 -0.05
J18 4
8 -1
9 1
19 -0.05
20 -0.05
J19 4
9 -1
10 1
20 -0.05
21 -0.05
G0 22
0 0
1 0
2 0
3 0
4 0
5 0
6 0
7 0
8 0
9 0
10 0
11 0
12 0
13 0
14 0
15 0
16 0
17 0
18 0
19 0
20 0
21 0
